Solving original (integer) problem with strategy gdp.binary_multiplication...
--- Job model.gms Start 02/19/26 10:03:26 52.2.0 d8e408be LEX-LEG x86 64bit/Linux
--- Applying:
    /package/gams/52.2/gmsprmun.txt
--- GAMS Parameters defined
    Input /local/scratch/a/sgusev/repos/k_means/data/gams_scip_gdp.binary_multiplication/no_mode/2026-02-19_10-03-26/original/model.gms
    Output /local/scratch/a/sgusev/repos/k_means/data/gams_scip_gdp.binary_multiplication/no_mode/2026-02-19_10-03-26/original/output.lst
    ScrDir /local/scratch/a/sgusev/repos/k_means/data/gams_scip_gdp.binary_multiplication/no_mode/2026-02-19_10-03-26/original/225a/
    SysDir /package/gams/52.2/
    CurDir /local/scratch/a/sgusev/repos/k_means/data/gams_scip_gdp.binary_multiplication/no_mode/2026-02-19_10-03-26/original/
    LogOption 3
    AppendLog 1
Licensee: David Bernal / SECQUOIA Research Group         G251008+0003Ac-GEN
          Purdue University, Davidson School of Chemical EngineeringDCE4838
          225a/gamslice.dat
          5a82958a-fbca-4a23
          node:66820903 mem:995 cores:48 ipport:47331 v:2                  
          Evaluation license: Not for commercial or production use
          The time-limited license stops working on : Jun 30, 2027
System information: 48 physical cores and 995 Gb physical memory detected
GAMS 52.2.0   Copyright (C) 1987-2025 GAMS Development. All rights reserved
--- Starting compilation
--- model.gms(316) 2 Mb
--- $echo File /local/scratch/a/sgusev/repos/k_means/data/gams_scip_gdp.binary_multiplication/no_mode/2026-02-19_10-03-26/original/scip.opt
--- model.gms(555) 2 Mb
--- Starting execution: elapsed 0:00:00.006
--- model.gms(326) 3 Mb
--- Generating MINLP model GAMS_MODEL
--- model.gms(330) 5 Mb
---   83 rows  89 columns  347 non-zeroes
---   715 nl-code  260 nl-non-zeroes
---   65 discrete-columns
--- Range statistics (absolute non-zero finite values)
--- RHS       [min, max] : [ 1.000E+00, 1.000E+00] - Zero values observed as well
--- Bound     [min, max] : [ 1.000E+00, 5.200E+01] - Zero values observed as well
--- Matrix    [min, max] : [ 2.253E-01, 1.473E+00] - Zero values observed as well
--- model.gms(330) 3 Mb
--- Executing SCIP (Solvelink=5): elapsed 0:00:00.009

SCIP             52.2.0 d8e408be Dec 8, 2025           LEG x86 64bit/Linux    
SCIP version 9.2.4 (a94f778ac8)
Copyright (c) 2002-2025 Zuse Institute Berlin (ZIB)

External libraries: 
  CPLEX 22.1.2.0       Linear Programming Solver developed by IBM (www.cplex.com)
  CppAD 20180000.0     Algorithmic Differentiation of C++ algorithms developed by B. Bell (github.com/coin-or/CppAD)
  PaPILO 2.4.4         parallel presolve for integer and linear optimization (github.com/scipopt/papilo) (built with TBB) [GitHash: 7c826d50]
  Nauty 2.8.9          Computing Graph Automorphism Groups by Brendan D. McKay (users.cecs.anu.edu.au/~bdm/nauty)
  sassy 1.1            Symmetry preprocessor by Markus Anders (github.com/markusa4/sassy)
  Ipopt 3.14.19        Interior Point Optimizer developed by A. Waechter et.al. (github.com/coin-or/Ipopt)

reading option file /local/scratch/a/sgusev/repos/k_means/data/gams_scip_gdp.binary_multiplication/no_mode/2026-02-19_10-03-26/original/scip.opt
non-default parameter settings:
limits/time = 300
limits/gap = 1e-06
limits/absgap = 1e-10
lp/threads = 1
misc/printreason = FALSE
numerics/dualfeastol = 1e-06
parallel/maxnthreads = 1
nlpi/ipopt/linear_solver = "ma27"
nlpi/ipopt/linear_system_scaling = "mc19"

original problem has 88 variables (65 bin, 0 int, 23 cont) and 82 constraints

all 1 solutions given by solution candidate storage are infeasible

presolving:
(round 1, exhaustive) 0 del vars, 0 del conss, 0 add conss, 0 chg bounds, 0 chg sides, 0 chg coeffs, 13 upgd conss, 0 impls, 13 clqs
   (0.0s) probing: 51/65 (78.5%) - 0 fixings, 0 aggregations, 0 implications, 0 bound changes
   (0.0s) probing aborted: 50/50 successive totally useless probings
   (0.0s) symmetry computation started: requiring (bin +, int +, cont +), (fixed: bin -, int -, cont -)
   (0.0s) no symmetry present (symcode time: 0.00)
presolving (2 rounds: 2 fast, 2 medium, 2 exhaustive):
 0 deleted vars, 0 deleted constraints, 0 added constraints, 0 tightened bounds, 0 added holes, 0 changed sides, 0 changed coefficients
 0 implications, 13 cliques
presolved problem has 88 variables (65 bin, 0 int, 0 impl, 23 cont) and 82 constraints
     13 constraints of type <setppc>
      4 constraints of type <linear>
     65 constraints of type <nonlinear>
Presolving Time: 0.01

 time | node  | left  |LP iter|LP it/n|mem/heur|mdpt |vars |cons |rows |cuts |sepa|confs|strbr|  dualbound   | primalbound  |  gap   | compl. 
  0.1s|     1 |     0 |    24 |     - |  4648k |   0 | 488 |  82 | 297 |   0 |  0 |   0 |   0 | 0.000000e+00 |      --      |    Inf | unknown
L 0.1s|     1 |     0 |    24 |     - |undercov|   0 | 488 |  82 | 297 |   0 |  0 |   0 |   0 | 0.000000e+00 | 6.760000e+02 |    Inf | unknown
L 0.1s|     1 |     0 |    24 |     - |undercov|   0 | 488 |  82 | 297 |   0 |  0 |   0 |   0 | 0.000000e+00 | 9.790631e+00 |    Inf | unknown
  0.1s|     1 |     0 |    59 |     - |  4878k |   0 | 488 |  82 | 310 |  13 |  1 |   0 |   0 | 0.000000e+00 | 9.790631e+00 |    Inf | unknown
  0.1s|     1 |     0 |    59 |     - |  4888k |   0 | 488 |  82 | 310 |  13 |  1 |   0 |   0 | 0.000000e+00 | 9.790631e+00 |    Inf | unknown
  0.1s|     1 |     0 |   103 |     - |  5086k |   0 | 488 |  82 | 329 |  32 |  2 |   0 |   0 | 0.000000e+00 | 9.790631e+00 |    Inf | unknown
  0.1s|     1 |     0 |   151 |     - |  5207k |   0 | 488 |  82 | 351 |  54 |  3 |   0 |   0 | 0.000000e+00 | 9.790631e+00 |    Inf | unknown
  0.1s|     1 |     0 |   189 |     - |  5263k |   0 | 488 |  82 | 367 |  70 |  4 |   0 |   0 | 0.000000e+00 | 9.790631e+00 |    Inf | unknown
  0.1s|     1 |     0 |   230 |     - |  5339k |   0 | 488 |  82 | 382 |  85 |  5 |   0 |   0 | 0.000000e+00 | 9.790631e+00 |    Inf | unknown
  0.1s|     1 |     0 |   276 |     - |  5402k |   0 | 488 |  82 | 396 |  99 |  6 |   0 |   0 | 0.000000e+00 | 9.790631e+00 |    Inf | unknown
  0.1s|     1 |     0 |   325 |     - |  5477k |   0 | 488 |  82 | 411 | 114 |  7 |   0 |   0 | 0.000000e+00 | 9.790631e+00 |    Inf | unknown
  0.1s|     1 |     0 |   365 |     - |  5581k |   0 | 488 |  82 | 422 | 125 |  8 |   0 |   0 | 0.000000e+00 | 9.790631e+00 |    Inf | unknown
  0.1s|     1 |     0 |   408 |     - |  5686k |   0 | 488 |  82 | 435 | 138 |  9 |   0 |   0 | 0.000000e+00 | 9.790631e+00 |    Inf | unknown
  0.2s|     1 |     0 |   453 |     - |  5763k |   0 | 488 |  82 | 447 | 150 | 10 |   0 |   0 | 0.000000e+00 | 9.790631e+00 |    Inf | unknown
  0.2s|     1 |     0 |   487 |     - |  6159k |   0 | 488 |  82 | 293 | 159 | 11 |   0 |   0 | 0.000000e+00 | 9.790631e+00 |    Inf | unknown
 time | node  | left  |LP iter|LP it/n|mem/heur|mdpt |vars |cons |rows |cuts |sepa|confs|strbr|  dualbound   | primalbound  |  gap   | compl. 
L 1.3s|     1 |     0 |   791 |     - |    rens|   0 | 488 |  82 | 293 | 159 | 11 |   0 |   0 | 0.000000e+00 | 4.935351e+00 |    Inf | unknown
d 1.6s|     1 |     0 |   791 |     - |    mpec|   0 | 488 |  82 | 293 | 159 | 11 |   0 |   0 | 0.000000e+00 | 4.824687e+00 |    Inf | unknown
  1.6s|     1 |     0 |   791 |     - |  7386k |   0 | 488 |  82 | 293 | 159 | 11 |   0 |   0 | 0.000000e+00 | 4.824687e+00 |    Inf | unknown
  1.6s|     1 |     0 |   807 |     - |  7416k |   0 | 488 |  82 | 281 | 165 | 12 |   0 |   0 | 0.000000e+00 | 4.824687e+00 |    Inf | unknown
  1.6s|     1 |     0 |   817 |     - |  7420k |   0 | 488 |  82 | 287 | 171 | 13 |   0 |   0 | 0.000000e+00 | 4.824687e+00 |    Inf | unknown
  1.6s|     1 |     2 |   817 |     - |  7428k |   0 | 488 |  82 | 287 | 171 | 13 |   0 |  25 | 0.000000e+00 | 4.824687e+00 |    Inf | unknown
  2.1s|   100 |   101 |  8711 |  83.1 |  9453k |  11 | 488 |  82 | 366 |3432 |  7 |   0 |  25 | 0.000000e+00 | 4.824687e+00 |    Inf | unknown
* 2.6s|   187 |   162 | 15353 |  79.9 |    LP  |  31 | 488 |  82 | 521 |5753 |  5 |   0 |  83 | 0.000000e+00 | 2.130900e+00 |    Inf |   0.99%
  2.6s|   200 |   163 | 15861 |  77.2 |    12M |  31 | 488 |  82 | 498 |5933 |  0 |   1 |  95 | 0.000000e+00 | 2.130900e+00 |    Inf |   1.17%
* 2.9s|   298 |   165 | 20238 |  66.5 |    LP  |  34 | 488 |  82 | 545 |7609 |  7 |  10 | 131 | 0.000000e+00 | 1.465839e+00 |    Inf |  12.06%
  3.0s|   300 |   167 | 20328 |  66.4 |    12M |  34 | 488 |  82 | 297 |7643 |  2 |  10 | 131 | 0.000000e+00 | 1.465839e+00 |    Inf |  12.06%
L 3.1s|   338 |   157 | 21793 |  63.2 |    alns|  34 | 488 |  82 | 445 |8273 |  8 |  17 | 141 | 0.000000e+00 | 1.337208e+00 |    Inf |  14.73%
L 3.1s|   338 |   157 | 21793 |  63.2 |    alns|  34 | 488 |  82 | 445 |8273 |  8 |  17 | 141 | 0.000000e+00 | 1.337204e+00 |    Inf |  14.73%
  3.3s|   400 |   177 | 24457 |  60.1 |    12M |  34 | 488 |  82 | 475 |9164 |  1 |  26 | 151 | 0.000000e+00 | 1.337204e+00 |    Inf |  15.43%
  3.6s|   500 |   195 | 27969 |  55.1 |    13M |  34 | 488 |  82 | 510 |  10k|  3 |  46 | 194 | 0.000000e+00 | 1.337204e+00 |    Inf |  16.94%
 time | node  | left  |LP iter|LP it/n|mem/heur|mdpt |vars |cons |rows |cuts |sepa|confs|strbr|  dualbound   | primalbound  |  gap   | compl. 
* 3.7s|   511 |   186 | 28611 |  55.1 |    LP  |  34 | 488 |  82 | 555 |  10k|  7 |  52 | 205 | 0.000000e+00 | 1.289917e+00 |    Inf |  17.14%
* 3.7s|   517 |   132 | 28739 |  54.7 |    LP  |  34 | 488 |  82 | 557 |  10k|  7 |  53 | 209 | 0.000000e+00 | 1.072080e+00 |    Inf |  22.23%
  3.9s|   600 |   149 | 32944 |  54.2 |    13M |  34 | 488 |  82 | 472 |  12k|  4 |  69 | 238 | 0.000000e+00 | 1.072080e+00 |    Inf |  22.47%
  4.3s|   700 |   175 | 38240 |  54.0 |    13M |  34 | 488 |  82 | 508 |  13k|  7 |  83 | 253 | 0.000000e+00 | 1.072080e+00 |    Inf |  22.62%
  5.2s|   800 |   193 | 43094 |  53.3 |    14M |  34 | 488 |  82 | 528 |  15k|  2 |  93 | 270 | 0.000000e+00 | 1.072080e+00 |    Inf |  22.77%
* 5.3s|   826 |   187 | 44442 |  53.3 |    LP  |  34 | 488 |  82 | 529 |  15k|  8 | 100 | 289 | 0.000000e+00 | 1.024517e+00 |    Inf |  22.78%
  5.5s|   900 |   177 | 47103 |  51.9 |    14M |  34 | 488 |  82 | 422 |  16k|  7 | 122 | 320 | 0.000000e+00 | 1.024517e+00 |    Inf |  26.38%
  5.8s|  1000 |   191 | 51363 |  50.9 |    14M |  34 | 488 |  82 | 490 |  18k|  1 | 137 | 344 | 0.000000e+00 | 1.024517e+00 |    Inf |  27.57%
  6.1s|  1100 |   197 | 55494 |  50.1 |    15M |  34 | 488 |  82 | 503 |  19k|  2 | 174 | 384 | 0.000000e+00 | 1.024517e+00 |    Inf |  27.76%
  6.4s|  1200 |   211 | 61000 |  50.5 |    15M |  34 | 488 |  82 | 471 |  21k|  0 | 208 | 434 | 0.000000e+00 | 1.024517e+00 |    Inf |  28.04%
  6.7s|  1300 |   231 | 64328 |  49.1 |    17M |  34 | 488 |  82 | 552 |  22k|  0 | 232 | 490 | 0.000000e+00 | 1.024517e+00 |    Inf |  28.04%
  6.9s|  1400 |   227 | 66522 |  47.2 |    17M |  34 | 488 |  82 | 540 |  23k|  3 | 254 | 526 | 0.000000e+00 | 1.024517e+00 |    Inf |  28.72%
  7.2s|  1500 |   233 | 69825 |  46.3 |    17M |  36 | 488 |  82 | 549 |  24k|  0 | 272 | 544 | 0.000000e+00 | 1.024517e+00 |    Inf |  28.84%
  7.5s|  1600 |   257 | 76084 |  47.3 |    18M |  36 | 488 |  82 | 433 |  27k|  2 | 279 | 548 | 0.000000e+00 | 1.024517e+00 |    Inf |  29.20%
  7.9s|  1700 |   273 | 81521 |  47.7 |    18M |  36 | 488 |  82 | 486 |  28k| 10 | 287 | 563 | 0.000000e+00 | 1.024517e+00 |    Inf |  29.88%
 time | node  | left  |LP iter|LP it/n|mem/heur|mdpt |vars |cons |rows |cuts |sepa|confs|strbr|  dualbound   | primalbound  |  gap   | compl. 
  8.2s|  1800 |   297 | 85150 |  47.1 |    18M |  36 | 488 |  82 | 533 |  30k|  0 | 306 | 586 | 0.000000e+00 | 1.024517e+00 |    Inf |  29.91%
  8.4s|  1900 |   285 | 87731 |  45.9 |    18M |  36 | 488 |  82 | 553 |  31k|  2 | 333 | 610 | 0.000000e+00 | 1.024517e+00 |    Inf |  29.91%
  8.7s|  2000 |   313 | 93413 |  46.5 |    19M |  36 | 488 |  82 | 521 |  32k|  8 | 338 | 622 | 0.000000e+00 | 1.024517e+00 |    Inf |  30.01%
  9.0s|  2100 |   327 | 97250 |  46.1 |    19M |  36 | 488 |  82 | 540 |  34k|  8 | 351 | 638 | 0.000000e+00 | 1.024517e+00 |    Inf |  30.06%
  9.3s|  2200 |   351 |101055 |  45.7 |    20M |  36 | 488 |  82 | 580 |  35k|  9 | 362 | 648 | 0.000000e+00 | 1.024517e+00 |    Inf |  30.08%
  9.5s|  2300 |   355 |104076 |  45.1 |    20M |  36 | 488 |  82 | 544 |  36k|  2 | 385 | 675 | 0.000000e+00 | 1.024517e+00 |    Inf |  30.08%
  9.7s|  2400 |   357 |106552 |  44.2 |    21M |  36 | 488 |  82 | 570 |  37k|  0 | 402 | 699 | 0.000000e+00 | 1.024517e+00 |    Inf |  30.08%
 10.0s|  2500 |   379 |112503 |  44.8 |    21M |  36 | 488 |  82 | 527 |  39k|  5 | 406 | 705 | 0.000000e+00 | 1.024517e+00 |    Inf |  30.09%
 10.2s|  2600 |   399 |115301 |  44.2 |    21M |  36 | 488 |  82 | 534 |  40k|  0 | 417 | 727 | 0.000000e+00 | 1.024517e+00 |    Inf |  30.09%
 10.5s|  2700 |   431 |119240 |  44.0 |    21M |  36 | 488 |  82 | 592 |  41k|  0 | 422 | 743 | 0.000000e+00 | 1.024517e+00 |    Inf |  30.09%
*10.5s|  2705 |   191 |119306 |  43.9 |    LP  |  37 | 488 |  82 | 619 |  41k|  6 | 422 | 743 | 0.000000e+00 | 6.851964e-01 |    Inf |  33.74%
 10.8s|  2800 |   184 |122184 |  43.5 |    21M |  37 | 488 |  82 | 563 |  42k|  2 | 436 | 759 | 0.000000e+00 | 6.851964e-01 |    Inf |  36.62%
 11.0s|  2900 |   186 |126204 |  43.4 |    21M |  37 | 488 |  82 | 586 |  44k|  8 | 449 | 781 | 0.000000e+00 | 6.851964e-01 |    Inf |  37.18%
 11.3s|  3000 |   182 |129613 |  43.1 |    21M |  37 | 488 |  82 | 546 |  45k|  0 | 456 | 792 | 0.000000e+00 | 6.851964e-01 |    Inf |  38.40%
 11.5s|  3100 |   186 |132501 |  42.6 |    21M |  37 | 488 |  82 | 553 |  46k|  0 | 461 | 795 | 0.000000e+00 | 6.851964e-01 |    Inf |  39.06%
 time | node  | left  |LP iter|LP it/n|mem/heur|mdpt |vars |cons |rows |cuts |sepa|confs|strbr|  dualbound   | primalbound  |  gap   | compl. 
 11.7s|  3200 |   200 |135592 |  42.2 |    21M |  37 | 488 |  82 | 530 |  47k|  2 | 469 | 810 | 0.000000e+00 | 6.851964e-01 |    Inf |  39.84%
 11.9s|  3300 |   186 |137904 |  41.7 |    22M |  37 | 488 |  82 | 593 |  48k|  3 | 483 | 833 | 0.000000e+00 | 6.851964e-01 |    Inf |  40.34%
 12.2s|  3400 |   168 |140335 |  41.1 |    22M |  37 | 488 |  82 | 541 |  49k|  1 | 488 | 839 | 0.000000e+00 | 6.851964e-01 |    Inf |  42.56%
 12.4s|  3500 |   176 |143578 |  40.9 |    22M |  37 | 488 |  82 | 541 |  50k|  7 | 491 | 842 | 0.000000e+00 | 6.851964e-01 |    Inf |  42.86%
 12.7s|  3600 |   182 |147966 |  41.0 |    22M |  37 | 488 |  82 | 503 |  51k|  0 | 500 | 848 | 0.000000e+00 | 6.851964e-01 |    Inf |  43.73%
 12.9s|  3700 |   184 |150772 |  40.6 |    22M |  37 | 488 |  82 | 563 |  53k|  5 | 510 | 857 | 0.000000e+00 | 6.851964e-01 |    Inf |  44.07%
 13.1s|  3800 |   182 |153008 |  40.1 |    22M |  37 | 488 |  82 |   0 |  53k|  0 | 518 | 868 | 0.000000e+00 | 6.851964e-01 |    Inf |  44.31%
 13.4s|  3900 |   198 |156633 |  40.0 |    22M |  37 | 488 |  82 | 533 |  55k|  2 | 522 | 876 | 0.000000e+00 | 6.851964e-01 |    Inf |  44.37%
 13.6s|  4000 |   208 |160384 |  40.0 |    22M |  37 | 488 |  82 | 492 |  56k|  7 | 532 | 890 | 0.000000e+00 | 6.851964e-01 |    Inf |  44.37%
 13.8s|  4100 |   212 |162730 |  39.6 |    22M |  37 | 488 |  82 | 538 |  57k|  5 | 537 | 899 | 0.000000e+00 | 6.851964e-01 |    Inf |  44.37%
 14.3s|  4200 |   214 |166345 |  39.5 |    22M |  37 | 488 |  82 | 480 |  57k|  2 | 554 | 913 | 0.000000e+00 | 6.851964e-01 |    Inf |  44.38%
 14.6s|  4300 |   218 |169291 |  39.3 |    22M |  37 | 488 |  82 |   0 |  59k|  0 | 573 | 937 | 0.000000e+00 | 6.851964e-01 |    Inf |  44.38%
 14.8s|  4400 |   222 |172523 |  39.1 |    22M |  37 | 488 |  82 |   0 |  60k|  0 | 576 | 944 | 0.000000e+00 | 6.851964e-01 |    Inf |  44.53%
 15.1s|  4500 |   224 |176516 |  39.1 |    22M |  37 | 488 |  82 | 542 |  61k|  7 | 579 | 949 | 0.000000e+00 | 6.851964e-01 |    Inf |  44.56%
 15.3s|  4600 |   234 |181378 |  39.3 |    22M |  37 | 488 |  82 | 454 |  63k|  2 | 589 | 955 | 0.000000e+00 | 6.851964e-01 |    Inf |  44.77%
 time | node  | left  |LP iter|LP it/n|mem/heur|mdpt |vars |cons |rows |cuts |sepa|confs|strbr|  dualbound   | primalbound  |  gap   | compl. 
 15.6s|  4700 |   246 |185780 |  39.4 |    22M |  37 | 488 |  82 | 542 |  64k|  9 | 593 | 960 | 0.000000e+00 | 6.851964e-01 |    Inf |  45.59%
 15.8s|  4800 |   244 |189816 |  39.5 |    23M |  37 | 488 |  82 | 476 |  65k|  2 | 603 | 979 | 0.000000e+00 | 6.851964e-01 |    Inf |  45.62%
 16.1s|  4900 |   268 |194940 |  39.7 |    23M |  37 | 488 |  82 |   0 |  67k|  0 | 610 | 984 | 0.000000e+00 | 6.851964e-01 |    Inf |  45.86%
 16.4s|  5000 |   290 |198982 |  39.7 |    23M |  37 | 488 |  82 | 533 |  68k|  7 | 617 | 992 | 0.000000e+00 | 6.851964e-01 |    Inf |  45.87%
 16.6s|  5100 |   294 |202298 |  39.6 |    23M |  37 | 488 |  82 | 549 |  70k|  2 | 626 |1015 | 0.000000e+00 | 6.851964e-01 |    Inf |  45.90%
 16.9s|  5200 |   288 |205362 |  39.4 |    23M |  37 | 488 |  82 | 509 |  71k|  6 | 638 |1030 | 0.000000e+00 | 6.851964e-01 |    Inf |  46.39%
 17.1s|  5300 |   312 |210930 |  39.7 |    23M |  37 | 488 |  82 | 516 |  72k|  7 | 642 |1032 | 0.000000e+00 | 6.851964e-01 |    Inf |  46.43%
 17.4s|  5400 |   316 |214983 |  39.7 |    23M |  37 | 488 |  82 | 530 |  74k|  5 | 656 |1060 | 0.000000e+00 | 6.851964e-01 |    Inf |  46.55%
*17.5s|  5469 |   308 |216920 |  39.6 |    LP  |  37 | 488 |  82 | 580 |  74k|  5 | 661 |1075 | 0.000000e+00 | 6.710891e-01 |    Inf |  46.55%
*17.6s|  5493 |   304 |217396 |  39.5 |    LP  |  37 | 488 |  82 | 572 |  74k|  6 | 663 |1084 | 0.000000e+00 | 6.684424e-01 |    Inf |  46.97%
 17.6s|  5500 |   305 |217589 |  39.5 |    23M |  37 | 488 |  82 | 530 |  74k|  6 | 664 |1086 | 0.000000e+00 | 6.684424e-01 |    Inf |  46.99%
 17.8s|  5600 |   293 |220105 |  39.2 |    23M |  37 | 488 |  82 | 473 |  75k|  2 | 674 |1105 | 0.000000e+00 | 6.684424e-01 |    Inf |  48.55%
 18.0s|  5700 |   291 |223717 |  39.2 |    23M |  37 | 488 |  82 | 536 |  76k|  3 | 680 |1105 | 0.000000e+00 | 6.684424e-01 |    Inf |  49.45%
 18.3s|  5800 |   307 |228458 |  39.3 |    25M |  37 | 488 |  82 | 522 |  78k|  3 | 683 |1107 | 1.812860e-03 | 6.684424e-01 |  Large |  50.86%
 18.5s|  5900 |   289 |231545 |  39.2 |    25M |  37 | 488 |  82 | 495 |  79k|  1 | 692 |1114 | 5.301704e-03 | 6.684424e-01 |  Large |  51.73%
 time | node  | left  |LP iter|LP it/n|mem/heur|mdpt |vars |cons |rows |cuts |sepa|confs|strbr|  dualbound   | primalbound  |  gap   | compl. 
 18.7s|  6000 |   281 |234727 |  39.0 |    25M |  37 | 488 |  82 |   0 |  80k|  0 | 701 |1120 | 1.082879e-02 | 6.684424e-01 |6072.83%|  52.94%
 18.9s|  6100 |   257 |237349 |  38.8 |    25M |  37 | 488 |  82 | 477 |  81k|  0 | 704 |1122 | 1.496698e-02 | 6.684424e-01 |4366.12%|  55.98%
 19.2s|  6200 |   253 |240416 |  38.7 |    25M |  37 | 488 |  82 | 520 |  82k|  5 | 704 |1131 | 3.956684e-02 | 6.684424e-01 |1589.40%|  58.11%
 19.4s|  6300 |   225 |243693 |  38.6 |    25M |  37 | 488 |  82 | 529 |  83k|  7 | 709 |1150 | 5.088349e-02 | 6.684424e-01 |1213.67%|  61.45%
 19.7s|  6400 |   197 |245912 |  38.4 |    25M |  37 | 488 |  82 | 410 |  84k|  3 | 720 |1165 | 5.088349e-02 | 6.684424e-01 |1213.67%|  64.45%
 19.9s|  6500 |   191 |249326 |  38.3 |    25M |  37 | 488 |  82 | 460 |  86k|  1 | 724 |1172 | 5.093271e-02 | 6.684424e-01 |1212.40%|  65.27%
 20.1s|  6600 |   175 |251579 |  38.0 |    25M |  37 | 488 |  82 | 464 |  87k|  0 | 727 |1176 | 6.412225e-02 | 6.684424e-01 | 942.45%|  67.38%
 20.4s|  6700 |   171 |254522 |  37.9 |    25M |  37 | 488 |  82 | 434 |  88k|  3 | 731 |1182 | 6.979151e-02 | 6.684424e-01 | 857.77%|  68.69%
 20.6s|  6800 |   165 |257278 |  37.8 |    25M |  37 | 488 |  82 | 573 |  89k|  7 | 735 |1194 | 6.979151e-02 | 6.684424e-01 | 857.77%|  69.88%
 20.8s|  6900 |   157 |259063 |  37.5 |    25M |  37 | 488 |  82 | 432 |  89k|  2 | 743 |1201 | 7.045384e-02 | 6.684424e-01 | 848.77%|  71.05%
 21.0s|  7000 |   157 |262275 |  37.4 |    25M |  37 | 488 |  82 | 512 |  91k|  1 | 749 |1204 | 7.579062e-02 | 6.684424e-01 | 781.96%|  71.40%
 21.2s|  7100 |   129 |264646 |  37.2 |    25M |  37 | 488 |  82 | 481 |  91k|  0 | 752 |1206 | 9.733007e-02 | 6.684424e-01 | 586.78%|  75.31%
 21.4s|  7200 |   123 |267345 |  37.1 |    25M |  37 | 488 |  82 | 391 |  92k|  0 | 753 |1208 | 1.031873e-01 | 6.684424e-01 | 547.80%|  76.56%
 21.7s|  7300 |   127 |271042 |  37.1 |    25M |  37 | 488 |  82 | 469 |  94k|  0 | 759 |1209 | 1.032075e-01 | 6.684424e-01 | 547.67%|  76.99%
 21.9s|  7400 |   125 |274621 |  37.0 |    25M |  37 | 488 |  82 | 447 |  95k|  2 | 775 |1222 | 1.032076e-01 | 6.684424e-01 | 547.67%|  77.42%
 time | node  | left  |LP iter|LP it/n|mem/heur|mdpt |vars |cons |rows |cuts |sepa|confs|strbr|  dualbound   | primalbound  |  gap   | compl. 
 22.2s|  7500 |   113 |277300 |  36.9 |    25M |  37 | 488 |  82 | 504 |  96k|  6 | 784 |1236 | 1.032076e-01 | 6.684424e-01 | 547.67%|  78.44%
 22.4s|  7600 |   113 |279807 |  36.8 |    25M |  37 | 488 |  82 | 509 |  97k|  2 | 788 |1237 | 1.032076e-01 | 6.684424e-01 | 547.67%|  79.49%
 22.7s|  7700 |   105 |283198 |  36.7 |    25M |  37 | 488 |  82 | 453 |  98k|  6 | 806 |1260 | 1.291917e-01 | 6.684424e-01 | 417.40%|  81.25%
 22.9s|  7800 |   117 |286379 |  36.7 |    26M |  37 | 488 |  82 | 431 |  99k|  0 | 812 |1263 | 1.359420e-01 | 6.684424e-01 | 391.71%|  81.54%
 23.2s|  7900 |   121 |289720 |  36.6 |    26M |  37 | 488 |  82 | 453 | 100k|  0 | 818 |1270 | 1.395495e-01 | 6.684424e-01 | 379.00%|  81.80%
 23.4s|  8000 |    99 |292668 |  36.5 |    26M |  37 | 488 |  82 | 439 | 101k|  0 | 819 |1274 | 1.622508e-01 | 6.684424e-01 | 311.98%|  82.58%
 23.6s|  8100 |    87 |294819 |  36.3 |    26M |  37 | 488 |  82 | 380 | 102k|  0 | 823 |1278 | 2.203060e-01 | 6.684424e-01 | 203.42%|  84.56%
 23.8s|  8200 |    83 |296803 |  36.1 |    26M |  37 | 488 |  82 | 433 | 103k|  0 | 826 |1278 | 2.203141e-01 | 6.684424e-01 | 203.40%|  85.13%
 24.1s|  8300 |    77 |299552 |  36.0 |    26M |  37 | 488 |  82 | 426 | 104k|  5 | 834 |1281 | 2.502702e-01 | 6.684424e-01 | 167.09%|  87.04%
 24.3s|  8400 |    66 |302100 |  35.9 |    26M |  37 | 488 |  82 | 409 | 105k|  2 | 843 |1286 | 2.745856e-01 | 6.684424e-01 | 143.44%|  90.80%
 24.5s|  8500 |    68 |304815 |  35.8 |    26M |  37 | 488 |  82 | 491 | 106k|  4 | 853 |1293 | 2.745856e-01 | 6.684424e-01 | 143.44%|  91.12%
 24.7s|  8600 |    60 |307474 |  35.7 |    26M |  37 | 488 |  82 | 424 | 107k|  2 | 855 |1293 | 2.746401e-01 | 6.684424e-01 | 143.39%|  92.10%
 24.9s|  8700 |    56 |310180 |  35.6 |    26M |  37 | 488 |  82 |   0 | 108k|  0 | 858 |1293 | 2.811126e-01 | 6.684424e-01 | 137.78%|  92.27%
 25.1s|  8800 |    40 |312249 |  35.4 |    26M |  37 | 488 |  82 | 452 | 109k|  2 | 868 |1303 | 2.937356e-01 | 6.684424e-01 | 127.57%|  94.37%
 25.4s|  8900 |    30 |314576 |  35.3 |    26M |  37 | 488 |  82 | 461 | 110k|  2 | 873 |1303 | 2.937356e-01 | 6.684424e-01 | 127.57%|  95.93%
 time | node  | left  |LP iter|LP it/n|mem/heur|mdpt |vars |cons |rows |cuts |sepa|confs|strbr|  dualbound   | primalbound  |  gap   | compl. 
 25.5s|  9000 |    18 |316763 |  35.1 |    26M |  37 | 488 |  82 | 392 | 111k|  0 | 876 |1304 | 2.939551e-01 | 6.684424e-01 | 127.40%|  97.17%
 25.8s|  9100 |     6 |319783 |  35.1 |    27M |  37 | 488 |  82 | 374 | 112k|  3 | 882 |1312 | 4.463793e-01 | 6.684424e-01 |  49.75%|  99.68%

SCIP Status        : problem is solved [optimal solution found]
Solving Time (sec) : 25.81
Solving Nodes      : 9114
Primal Bound       : +6.68442441083823e-01 (16 solutions)
Dual Bound         : +6.68442441083823e-01
Gap                : 0.00 %


--- Reading solution for model GAMS_MODEL
***
*** Solver did not provide marginals for model GAMS_MODEL
***
--- Executing after solve: elapsed 0:00:25.867
--- model.gms(333) 3 Mb
--- model.gms(555) 5 Mb
--- Putfile results /local/scratch/a/sgusev/repos/k_means/data/gams_scip_gdp.binary_multiplication/no_mode/2026-02-19_10-03-26/original/results.dat
--- Putfile statresults /local/scratch/a/sgusev/repos/k_means/data/gams_scip_gdp.binary_multiplication/no_mode/2026-02-19_10-03-26/original/resultsstat.dat
*** Status: Normal completion
--- Job model.gms Stop 02/19/26 10:03:52 elapsed 0:00:25.868
Original problem solved. Time taken: 26.34094262123108 seconds
Original objective value: 0.668442441083824
